
(set-option :produce-models true)
(set-option :inline-size-limit 10000)

(declare-const var0 String)

(push 1)
(assert (str.in.re var0 (re.* (re.range "\x01" "\xff"))))
(assert (str.in.re var0 (re.++ (re.*? re.allchar) (re.++ (re.++ (re.opt ((_ re.capture 1) (str.to.re "+"))) (re.++ (re.opt ((_ re.capture 2) (str.to.re "("))) (re.++ ((_ re.loop 1 4) ((_ re.capture 3) (re.+ (re.range "0" "9")))) (re.++ (re.opt ((_ re.capture 4) (str.to.re ")"))) (re.++ (re.opt ((_ re.capture 5) (re.union (str.to.re " ") (re.union (str.to.re "\u{0b}") (re.union (str.to.re "\u{0a}") (re.union (str.to.re "\u{0d}") (re.union (str.to.re "\u{09}") (str.to.re "\u{0c}")))))))) (re.++ (re.opt ((_ re.capture 6) (str.to.re "-"))) (re.++ ((_ re.loop 1 3) ((_ re.capture 7) (re.+ (re.range "0" "9")))) (re.++ (re.opt ((_ re.capture 8) (re.union (str.to.re " ") (re.union (str.to.re "\u{0b}") (re.union (str.to.re "\u{0a}") (re.union (str.to.re "\u{0d}") (re.union (str.to.re "\u{09}") (str.to.re "\u{0c}")))))))) (re.++ (re.opt ((_ re.capture 9) (str.to.re "-"))) (re.++ ((_ re.loop 1 4) ((_ re.capture 10) (re.+ (re.range "0" "9")))) (re.++ (re.opt ((_ re.capture 11) (re.union (str.to.re " ") (re.union (str.to.re "\u{0b}") (re.union (str.to.re "\u{0a}") (re.union (str.to.re "\u{0d}") (re.union (str.to.re "\u{09}") (str.to.re "\u{0c}")))))))) (re.++ (re.opt ((_ re.capture 12) (str.to.re "-"))) (re.++ ((_ re.loop 1 4) ((_ re.capture 13) (re.+ (re.range "0" "9")))) (re.++ (re.opt ((_ re.capture 14) (re.union (str.to.re " ") (re.union (str.to.re "\u{0b}") (re.union (str.to.re "\u{0a}") (re.union (str.to.re "\u{0d}") (re.union (str.to.re "\u{09}") (str.to.re "\u{0c}")))))))) (re.++ (re.opt ((_ re.capture 15) (str.to.re "-"))) ((_ re.loop 1 4) ((_ re.capture 16) (re.+ (re.range "0" "9"))))))))))))))))))) re.all))))	; match!==null
(assert (not (str.in.re ((_ str.extract 1) var0 (re.++ (re.*? re.allchar) (re.++ (re.++ (re.opt ((_ re.capture 1) (str.to.re "+"))) (re.++ (re.opt ((_ re.capture 2) (str.to.re "("))) (re.++ ((_ re.loop 1 4) ((_ re.capture 3) (re.+ (re.range "0" "9")))) (re.++ (re.opt ((_ re.capture 4) (str.to.re ")"))) (re.++ (re.opt ((_ re.capture 5) (re.union (str.to.re " ") (re.union (str.to.re "\u{0b}") (re.union (str.to.re "\u{0a}") (re.union (str.to.re "\u{0d}") (re.union (str.to.re "\u{09}") (str.to.re "\u{0c}")))))))) (re.++ (re.opt ((_ re.capture 6) (str.to.re "-"))) (re.++ ((_ re.loop 1 3) ((_ re.capture 7) (re.+ (re.range "0" "9")))) (re.++ (re.opt ((_ re.capture 8) (re.union (str.to.re " ") (re.union (str.to.re "\u{0b}") (re.union (str.to.re "\u{0a}") (re.union (str.to.re "\u{0d}") (re.union (str.to.re "\u{09}") (str.to.re "\u{0c}")))))))) (re.++ (re.opt ((_ re.capture 9) (str.to.re "-"))) (re.++ ((_ re.loop 1 4) ((_ re.capture 10) (re.+ (re.range "0" "9")))) (re.++ (re.opt ((_ re.capture 11) (re.union (str.to.re " ") (re.union (str.to.re "\u{0b}") (re.union (str.to.re "\u{0a}") (re.union (str.to.re "\u{0d}") (re.union (str.to.re "\u{09}") (str.to.re "\u{0c}")))))))) (re.++ (re.opt ((_ re.capture 12) (str.to.re "-"))) (re.++ ((_ re.loop 1 4) ((_ re.capture 13) (re.+ (re.range "0" "9")))) (re.++ (re.opt ((_ re.capture 14) (re.union (str.to.re " ") (re.union (str.to.re "\u{0b}") (re.union (str.to.re "\u{0a}") (re.union (str.to.re "\u{0d}") (re.union (str.to.re "\u{09}") (str.to.re "\u{0c}")))))))) (re.++ (re.opt ((_ re.capture 15) (str.to.re "-"))) ((_ re.loop 1 4) ((_ re.capture 16) (re.+ (re.range "0" "9"))))))))))))))))))) re.all))) (str.to.re "\x00"))))
;match[1]!==null
(assert (str.in.re ((_ str.extract 1) var0 (re.++ (re.*? re.allchar) (re.++ (re.++ (re.opt ((_ re.capture 1) (str.to.re "+"))) (re.++ (re.opt ((_ re.capture 2) (str.to.re "("))) (re.++ ((_ re.loop 1 4) ((_ re.capture 3) (re.+ (re.range "0" "9")))) (re.++ (re.opt ((_ re.capture 4) (str.to.re ")"))) (re.++ (re.opt ((_ re.capture 5) (re.union (str.to.re " ") (re.union (str.to.re "\u{0b}") (re.union (str.to.re "\u{0a}") (re.union (str.to.re "\u{0d}") (re.union (str.to.re "\u{09}") (str.to.re "\u{0c}")))))))) (re.++ (re.opt ((_ re.capture 6) (str.to.re "-"))) (re.++ ((_ re.loop 1 3) ((_ re.capture 7) (re.+ (re.range "0" "9")))) (re.++ (re.opt ((_ re.capture 8) (re.union (str.to.re " ") (re.union (str.to.re "\u{0b}") (re.union (str.to.re "\u{0a}") (re.union (str.to.re "\u{0d}") (re.union (str.to.re "\u{09}") (str.to.re "\u{0c}")))))))) (re.++ (re.opt ((_ re.capture 9) (str.to.re "-"))) (re.++ ((_ re.loop 1 4) ((_ re.capture 10) (re.+ (re.range "0" "9")))) (re.++ (re.opt ((_ re.capture 11) (re.union (str.to.re " ") (re.union (str.to.re "\u{0b}") (re.union (str.to.re "\u{0a}") (re.union (str.to.re "\u{0d}") (re.union (str.to.re "\u{09}") (str.to.re "\u{0c}")))))))) (re.++ (re.opt ((_ re.capture 12) (str.to.re "-"))) (re.++ ((_ re.loop 1 4) ((_ re.capture 13) (re.+ (re.range "0" "9")))) (re.++ (re.opt ((_ re.capture 14) (re.union (str.to.re " ") (re.union (str.to.re "\u{0b}") (re.union (str.to.re "\u{0a}") (re.union (str.to.re "\u{0d}") (re.union (str.to.re "\u{09}") (str.to.re "\u{0c}")))))))) (re.++ (re.opt ((_ re.capture 15) (str.to.re "-"))) ((_ re.loop 1 4) ((_ re.capture 16) (re.+ (re.range "0" "9"))))))))))))))))))) re.all))) (re.++ re.all(re.+ (re.range "a" "z")) re.all) ))
;/[a-z]+/.test(match[1]) == true
(check-sat)
(get-model)
(pop 1)
(push 1)
(assert (str.in.re var0 (re.* (re.range "\x01" "\xff"))))
(assert (str.in.re var0 (re.++ (re.*? re.allchar) (re.++ (re.++ (re.opt ((_ re.capture 1) (str.to.re "+"))) (re.++ (re.opt ((_ re.capture 2) (str.to.re "("))) (re.++ ((_ re.loop 1 4) ((_ re.capture 3) (re.+ (re.range "0" "9")))) (re.++ (re.opt ((_ re.capture 4) (str.to.re ")"))) (re.++ (re.opt ((_ re.capture 5) (re.union (str.to.re " ") (re.union (str.to.re "\u{0b}") (re.union (str.to.re "\u{0a}") (re.union (str.to.re "\u{0d}") (re.union (str.to.re "\u{09}") (str.to.re "\u{0c}")))))))) (re.++ (re.opt ((_ re.capture 6) (str.to.re "-"))) (re.++ ((_ re.loop 1 3) ((_ re.capture 7) (re.+ (re.range "0" "9")))) (re.++ (re.opt ((_ re.capture 8) (re.union (str.to.re " ") (re.union (str.to.re "\u{0b}") (re.union (str.to.re "\u{0a}") (re.union (str.to.re "\u{0d}") (re.union (str.to.re "\u{09}") (str.to.re "\u{0c}")))))))) (re.++ (re.opt ((_ re.capture 9) (str.to.re "-"))) (re.++ ((_ re.loop 1 4) ((_ re.capture 10) (re.+ (re.range "0" "9")))) (re.++ (re.opt ((_ re.capture 11) (re.union (str.to.re " ") (re.union (str.to.re "\u{0b}") (re.union (str.to.re "\u{0a}") (re.union (str.to.re "\u{0d}") (re.union (str.to.re "\u{09}") (str.to.re "\u{0c}")))))))) (re.++ (re.opt ((_ re.capture 12) (str.to.re "-"))) (re.++ ((_ re.loop 1 4) ((_ re.capture 13) (re.+ (re.range "0" "9")))) (re.++ (re.opt ((_ re.capture 14) (re.union (str.to.re " ") (re.union (str.to.re "\u{0b}") (re.union (str.to.re "\u{0a}") (re.union (str.to.re "\u{0d}") (re.union (str.to.re "\u{09}") (str.to.re "\u{0c}")))))))) (re.++ (re.opt ((_ re.capture 15) (str.to.re "-"))) ((_ re.loop 1 4) ((_ re.capture 16) (re.+ (re.range "0" "9"))))))))))))))))))) re.all))))	; match!==null
(assert (not (str.in.re ((_ str.extract 1) var0 (re.++ (re.*? re.allchar) (re.++ (re.++ (re.opt ((_ re.capture 1) (str.to.re "+"))) (re.++ (re.opt ((_ re.capture 2) (str.to.re "("))) (re.++ ((_ re.loop 1 4) ((_ re.capture 3) (re.+ (re.range "0" "9")))) (re.++ (re.opt ((_ re.capture 4) (str.to.re ")"))) (re.++ (re.opt ((_ re.capture 5) (re.union (str.to.re " ") (re.union (str.to.re "\u{0b}") (re.union (str.to.re "\u{0a}") (re.union (str.to.re "\u{0d}") (re.union (str.to.re "\u{09}") (str.to.re "\u{0c}")))))))) (re.++ (re.opt ((_ re.capture 6) (str.to.re "-"))) (re.++ ((_ re.loop 1 3) ((_ re.capture 7) (re.+ (re.range "0" "9")))) (re.++ (re.opt ((_ re.capture 8) (re.union (str.to.re " ") (re.union (str.to.re "\u{0b}") (re.union (str.to.re "\u{0a}") (re.union (str.to.re "\u{0d}") (re.union (str.to.re "\u{09}") (str.to.re "\u{0c}")))))))) (re.++ (re.opt ((_ re.capture 9) (str.to.re "-"))) (re.++ ((_ re.loop 1 4) ((_ re.capture 10) (re.+ (re.range "0" "9")))) (re.++ (re.opt ((_ re.capture 11) (re.union (str.to.re " ") (re.union (str.to.re "\u{0b}") (re.union (str.to.re "\u{0a}") (re.union (str.to.re "\u{0d}") (re.union (str.to.re "\u{09}") (str.to.re "\u{0c}")))))))) (re.++ (re.opt ((_ re.capture 12) (str.to.re "-"))) (re.++ ((_ re.loop 1 4) ((_ re.capture 13) (re.+ (re.range "0" "9")))) (re.++ (re.opt ((_ re.capture 14) (re.union (str.to.re " ") (re.union (str.to.re "\u{0b}") (re.union (str.to.re "\u{0a}") (re.union (str.to.re "\u{0d}") (re.union (str.to.re "\u{09}") (str.to.re "\u{0c}")))))))) (re.++ (re.opt ((_ re.capture 15) (str.to.re "-"))) ((_ re.loop 1 4) ((_ re.capture 16) (re.+ (re.range "0" "9"))))))))))))))))))) re.all))) (str.to.re "\x00"))))	
;match[1]!==null
(assert (not (str.in.re ((_ str.extract 1) var0 (re.++ (re.*? re.allchar) (re.++ (re.++ (re.opt ((_ re.capture 1) (str.to.re "+"))) (re.++ (re.opt ((_ re.capture 2) (str.to.re "("))) (re.++ ((_ re.loop 1 4) ((_ re.capture 3) (re.+ (re.range "0" "9")))) (re.++ (re.opt ((_ re.capture 4) (str.to.re ")"))) (re.++ (re.opt ((_ re.capture 5) (re.union (str.to.re " ") (re.union (str.to.re "\u{0b}") (re.union (str.to.re "\u{0a}") (re.union (str.to.re "\u{0d}") (re.union (str.to.re "\u{09}") (str.to.re "\u{0c}")))))))) (re.++ (re.opt ((_ re.capture 6) (str.to.re "-"))) (re.++ ((_ re.loop 1 3) ((_ re.capture 7) (re.+ (re.range "0" "9")))) (re.++ (re.opt ((_ re.capture 8) (re.union (str.to.re " ") (re.union (str.to.re "\u{0b}") (re.union (str.to.re "\u{0a}") (re.union (str.to.re "\u{0d}") (re.union (str.to.re "\u{09}") (str.to.re "\u{0c}")))))))) (re.++ (re.opt ((_ re.capture 9) (str.to.re "-"))) (re.++ ((_ re.loop 1 4) ((_ re.capture 10) (re.+ (re.range "0" "9")))) (re.++ (re.opt ((_ re.capture 11) (re.union (str.to.re " ") (re.union (str.to.re "\u{0b}") (re.union (str.to.re "\u{0a}") (re.union (str.to.re "\u{0d}") (re.union (str.to.re "\u{09}") (str.to.re "\u{0c}")))))))) (re.++ (re.opt ((_ re.capture 12) (str.to.re "-"))) (re.++ ((_ re.loop 1 4) ((_ re.capture 13) (re.+ (re.range "0" "9")))) (re.++ (re.opt ((_ re.capture 14) (re.union (str.to.re " ") (re.union (str.to.re "\u{0b}") (re.union (str.to.re "\u{0a}") (re.union (str.to.re "\u{0d}") (re.union (str.to.re "\u{09}") (str.to.re "\u{0c}")))))))) (re.++ (re.opt ((_ re.capture 15) (str.to.re "-"))) ((_ re.loop 1 4) ((_ re.capture 16) (re.+ (re.range "0" "9"))))))))))))))))))) re.all))) (re.++ re.all(re.+ (re.range "a" "z")) re.all) )))
;/[a-z]+/.test(match[1]) == false	
(check-sat)
(get-model)
(pop 1)
(push 1)
(assert (str.in.re var0 (re.* (re.range "\x01" "\xff"))))
(assert (str.in.re var0 (re.++ (re.*? re.allchar) (re.++ (re.++ (re.opt ((_ re.capture 1) (str.to.re "+"))) (re.++ (re.opt ((_ re.capture 2) (str.to.re "("))) (re.++ ((_ re.loop 1 4) ((_ re.capture 3) (re.+ (re.range "0" "9")))) (re.++ (re.opt ((_ re.capture 4) (str.to.re ")"))) (re.++ (re.opt ((_ re.capture 5) (re.union (str.to.re " ") (re.union (str.to.re "\u{0b}") (re.union (str.to.re "\u{0a}") (re.union (str.to.re "\u{0d}") (re.union (str.to.re "\u{09}") (str.to.re "\u{0c}")))))))) (re.++ (re.opt ((_ re.capture 6) (str.to.re "-"))) (re.++ ((_ re.loop 1 3) ((_ re.capture 7) (re.+ (re.range "0" "9")))) (re.++ (re.opt ((_ re.capture 8) (re.union (str.to.re " ") (re.union (str.to.re "\u{0b}") (re.union (str.to.re "\u{0a}") (re.union (str.to.re "\u{0d}") (re.union (str.to.re "\u{09}") (str.to.re "\u{0c}")))))))) (re.++ (re.opt ((_ re.capture 9) (str.to.re "-"))) (re.++ ((_ re.loop 1 4) ((_ re.capture 10) (re.+ (re.range "0" "9")))) (re.++ (re.opt ((_ re.capture 11) (re.union (str.to.re " ") (re.union (str.to.re "\u{0b}") (re.union (str.to.re "\u{0a}") (re.union (str.to.re "\u{0d}") (re.union (str.to.re "\u{09}") (str.to.re "\u{0c}")))))))) (re.++ (re.opt ((_ re.capture 12) (str.to.re "-"))) (re.++ ((_ re.loop 1 4) ((_ re.capture 13) (re.+ (re.range "0" "9")))) (re.++ (re.opt ((_ re.capture 14) (re.union (str.to.re " ") (re.union (str.to.re "\u{0b}") (re.union (str.to.re "\u{0a}") (re.union (str.to.re "\u{0d}") (re.union (str.to.re "\u{09}") (str.to.re "\u{0c}")))))))) (re.++ (re.opt ((_ re.capture 15) (str.to.re "-"))) ((_ re.loop 1 4) ((_ re.capture 16) (re.+ (re.range "0" "9"))))))))))))))))))) re.all))))	; match!==null
(assert (str.in.re ((_ str.extract 1) var0 (re.++ (re.*? re.allchar) (re.++ (re.++ (re.opt ((_ re.capture 1) (str.to.re "+"))) (re.++ (re.opt ((_ re.capture 2) (str.to.re "("))) (re.++ ((_ re.loop 1 4) ((_ re.capture 3) (re.+ (re.range "0" "9")))) (re.++ (re.opt ((_ re.capture 4) (str.to.re ")"))) (re.++ (re.opt ((_ re.capture 5) (re.union (str.to.re " ") (re.union (str.to.re "\u{0b}") (re.union (str.to.re "\u{0a}") (re.union (str.to.re "\u{0d}") (re.union (str.to.re "\u{09}") (str.to.re "\u{0c}")))))))) (re.++ (re.opt ((_ re.capture 6) (str.to.re "-"))) (re.++ ((_ re.loop 1 3) ((_ re.capture 7) (re.+ (re.range "0" "9")))) (re.++ (re.opt ((_ re.capture 8) (re.union (str.to.re " ") (re.union (str.to.re "\u{0b}") (re.union (str.to.re "\u{0a}") (re.union (str.to.re "\u{0d}") (re.union (str.to.re "\u{09}") (str.to.re "\u{0c}")))))))) (re.++ (re.opt ((_ re.capture 9) (str.to.re "-"))) (re.++ ((_ re.loop 1 4) ((_ re.capture 10) (re.+ (re.range "0" "9")))) (re.++ (re.opt ((_ re.capture 11) (re.union (str.to.re " ") (re.union (str.to.re "\u{0b}") (re.union (str.to.re "\u{0a}") (re.union (str.to.re "\u{0d}") (re.union (str.to.re "\u{09}") (str.to.re "\u{0c}")))))))) (re.++ (re.opt ((_ re.capture 12) (str.to.re "-"))) (re.++ ((_ re.loop 1 4) ((_ re.capture 13) (re.+ (re.range "0" "9")))) (re.++ (re.opt ((_ re.capture 14) (re.union (str.to.re " ") (re.union (str.to.re "\u{0b}") (re.union (str.to.re "\u{0a}") (re.union (str.to.re "\u{0d}") (re.union (str.to.re "\u{09}") (str.to.re "\u{0c}")))))))) (re.++ (re.opt ((_ re.capture 15) (str.to.re "-"))) ((_ re.loop 1 4) ((_ re.capture 16) (re.+ (re.range "0" "9"))))))))))))))))))) re.all))) (str.to.re "\x00")))
;match[1]==null
(check-sat)
(get-model)
(pop 1)
(push 1)
(assert (str.in.re var0 (re.* (re.range "\x01" "\xff"))))
(assert (not (str.in.re var0 (re.++ (re.*? re.allchar) (re.++ (re.++ (re.opt ((_ re.capture 1) (str.to.re "+"))) (re.++ (re.opt ((_ re.capture 2) (str.to.re "("))) (re.++ ((_ re.loop 1 4) ((_ re.capture 3) (re.+ (re.range "0" "9")))) (re.++ (re.opt ((_ re.capture 4) (str.to.re ")"))) (re.++ (re.opt ((_ re.capture 5) (re.union (str.to.re " ") (re.union (str.to.re "\u{0b}") (re.union (str.to.re "\u{0a}") (re.union (str.to.re "\u{0d}") (re.union (str.to.re "\u{09}") (str.to.re "\u{0c}")))))))) (re.++ (re.opt ((_ re.capture 6) (str.to.re "-"))) (re.++ ((_ re.loop 1 3) ((_ re.capture 7) (re.+ (re.range "0" "9")))) (re.++ (re.opt ((_ re.capture 8) (re.union (str.to.re " ") (re.union (str.to.re "\u{0b}") (re.union (str.to.re "\u{0a}") (re.union (str.to.re "\u{0d}") (re.union (str.to.re "\u{09}") (str.to.re "\u{0c}")))))))) (re.++ (re.opt ((_ re.capture 9) (str.to.re "-"))) (re.++ ((_ re.loop 1 4) ((_ re.capture 10) (re.+ (re.range "0" "9")))) (re.++ (re.opt ((_ re.capture 11) (re.union (str.to.re " ") (re.union (str.to.re "\u{0b}") (re.union (str.to.re "\u{0a}") (re.union (str.to.re "\u{0d}") (re.union (str.to.re "\u{09}") (str.to.re "\u{0c}")))))))) (re.++ (re.opt ((_ re.capture 12) (str.to.re "-"))) (re.++ ((_ re.loop 1 4) ((_ re.capture 13) (re.+ (re.range "0" "9")))) (re.++ (re.opt ((_ re.capture 14) (re.union (str.to.re " ") (re.union (str.to.re "\u{0b}") (re.union (str.to.re "\u{0a}") (re.union (str.to.re "\u{0d}") (re.union (str.to.re "\u{09}") (str.to.re "\u{0c}")))))))) (re.++ (re.opt ((_ re.capture 15) (str.to.re "-"))) ((_ re.loop 1 4) ((_ re.capture 16) (re.+ (re.range "0" "9"))))))))))))))))))) re.all)))))	; match == null
(check-sat)
(get-model)
(pop 1)
(exit)
